p tw 169 30421 2 
1 3 
1 4 
1 5 
1 6 
1 7 
1 8 
1 9 
1 10 
1 11 
1 12 
1 13 
1 14 
1 16 
1 27 
1 36 
1 40 
1 41 
1 53 
1 57 
1 66 
1 76 
1 79 
1 86 
1 92 
1 98 
1 105 
1 110 
1 118 
1 129 
1 131 
1 134 
1 144 
1 156 
1 157 
1 165 
2 3 
2 4 
2 5 
2 6 
2 7 
2 8 
2 9 
2 10 
2 11 
2 12 
2 13 
2 15 
2 17 
2 28 
2 38 
2 41 
2 45 
2 54 
2 62 
2 67 
2 74 
2 80 
2 81 
2 93 
2 99 
2 106 
2 115 
2 119 
2 130 
2 132 
2 135 
2 144 
2 145 
2 158 
2 163 
3 4 
3 5 
3 6 
3 7 
3 8 
3 9 
3 10 
3 11 
3 12 
3 13 
3 15 
3 16 
3 29 
3 37 
3 42 
3 52 
3 55 
3 64 
3 68 
3 71 
3 81 
3 85 
3 92 
3 94 
3 107 
3 112 
3 120 
3 122 
3 133 
3 139 
3 146 
3 153 
3 159 
3 160 
4 5 
4 6 
4 7 
4 8 
4 9 
4 10 
4 11 
4 12 
4 13 
4 17 
4 23 
4 30 
4 32 
4 40 
4 43 
4 56 
4 59 
4 69 
4 77 
4 80 
4 82 
4 95 
4 100 
4 108 
4 117 
4 121 
4 125 
4 134 
4 141 
4 146 
4 147 
4 160 
4 161 
5 6 
5 7 
5 8 
5 9 
5 10 
5 11 
5 12 
5 13 
5 18 
5 20 
5 30 
5 31 
5 44 
5 48 
5 57 
5 63 
5 68 
5 70 
5 83 
5 91 
5 96 
5 103 
5 105 
5 109 
5 119 
5 122 
5 135 
5 136 
5 148 
5 151 
5 161 
5 166 
6 7 
6 8 
6 9 
6 10 
6 11 
6 12 
6 13 
6 19 
6 21 
6 32 
6 33 
6 45 
6 50 
6 54 
6 58 
6 66 
6 71 
6 83 
6 84 
6 97 
6 101 
6 110 
6 113 
6 120 
6 123 
6 136 
6 142 
6 147 
6 149 
6 162 
6 169 
7 8 
7 9 
7 10 
7 11 
7 12 
7 13 
7 19 
7 20 
7 31 
7 33 
7 43 
7 46 
7 55 
7 59 
7 67 
7 72 
7 85 
7 88 
7 98 
7 104 
7 111 
7 116 
7 124 
7 128 
7 137 
7 138 
7 150 
7 152 
7 157 
7 163 
8 9 
8 10 
8 11 
8 12 
8 13 
8 18 
8 21 
8 29 
8 34 
8 47 
8 51 
8 53 
8 60 
8 73 
8 78 
8 84 
8 86 
8 95 
8 99 
8 112 
8 114 
8 125 
8 126 
8 132 
8 138 
8 150 
8 151 
8 164 
8 167 
9 10 
9 11 
9 12 
9 13 
9 14 
9 22 
9 28 
9 35 
9 48 
9 49 
9 61 
9 65 
9 69 
9 74 
9 87 
9 90 
9 94 
9 100 
9 109 
9 113 
9 123 
9 126 
9 137 
9 139 
9 152 
9 154 
9 164 
9 165 
10 11 
10 12 
10 13 
10 22 
10 23 
10 34 
10 36 
10 46 
10 49 
10 58 
10 62 
10 70 
10 75 
10 82 
10 88 
10 101 
10 102 
10 106 
10 114 
10 118 
10 127 
10 140 
10 143 
10 153 
10 155 
10 159 
10 166 
11 12 
11 13 
11 24 
11 26 
11 35 
11 37 
11 44 
11 50 
11 56 
11 63 
11 73 
11 76 
11 79 
11 89 
11 93 
11 102 
11 107 
11 115 
11 124 
11 128 
11 140 
11 141 
11 149 
11 154 
11 167 
11 168 
12 13 
12 24 
12 25 
12 38 
12 39 
12 42 
12 51 
12 60 
12 64 
12 72 
12 77 
12 87 
12 90 
12 96 
12 103 
12 108 
12 116 
12 127 
12 129 
12 131 
12 142 
12 145 
12 155 
12 162 
12 168 
13 25 
13 26 
13 27 
13 39 
13 47 
13 52 
13 61 
13 65 
13 75 
13 78 
13 89 
13 91 
13 97 
13 104 
13 111 
13 117 
13 121 
13 130 
13 133 
13 143 
13 148 
13 156 
13 158 
13 169 
14 15 
14 16 
14 17 
14 18 
14 19 
14 20 
14 21 
14 22 
14 23 
14 24 
14 25 
14 26 
14 27 
14 28 
14 40 
14 49 
14 53 
14 65 
14 66 
14 69 
14 79 
14 90 
14 92 
14 94 
14 105 
14 109 
14 118 
14 123 
14 131 
14 137 
14 144 
14 154 
14 157 
14 164 
15 16 
15 17 
15 18 
15 19 
15 20 
15 21 
15 22 
15 23 
15 24 
15 25 
15 26 
15 28 
15 37 
15 41 
15 52 
15 54 
15 64 
15 67 
15 71 
15 80 
15 85 
15 92 
15 93 
15 106 
15 112 
15 119 
15 122 
15 132 
15 139 
15 145 
15 153 
15 158 
15 160 
16 17 
16 18 
16 19 
16 20 
16 21 
16 22 
16 23 
16 24 
16 25 
16 26 
16 29 
16 36 
16 41 
16 42 
16 55 
16 57 
16 68 
16 76 
16 81 
16 86 
16 94 
16 98 
16 107 
16 110 
16 120 
16 129 
16 133 
16 134 
16 146 
16 156 
16 159 
16 165 
17 18 
17 19 
17 20 
17 21 
17 22 
17 23 
17 24 
17 25 
17 26 
17 30 
17 38 
17 43 
17 45 
17 56 
17 62 
17 69 
17 74 
17 81 
17 82 
17 95 
17 99 
17 108 
17 115 
17 121 
17 130 
17 134 
17 135 
17 144 
17 147 
17 160 
17 163 
18 19 
18 20 
18 21 
18 22 
18 23 
18 24 
18 25 
18 26 
18 29 
18 31 
18 44 
18 51 
18 53 
18 57 
18 70 
18 78 
18 83 
18 84 
18 95 
18 96 
18 109 
18 114 
18 122 
18 126 
18 132 
18 135 
18 148 
18 150 
18 161 
18 167 
19 20 
19 21 
19 22 
19 23 
19 24 
19 25 
19 26 
19 31 
19 32 
19 43 
19 45 
19 55 
19 58 
19 67 
19 71 
19 84 
19 88 
19 97 
19 104 
19 110 
19 116 
19 123 
19 128 
19 136 
19 138 
19 149 
19 152 
19 157 
19 162 
20 21 
20 22 
20 23 
20 24 
20 25 
20 26 
20 30 
20 33 
20 46 
20 48 
20 59 
20 63 
20 68 
20 72 
20 85 
20 91 
20 98 
20 103 
20 105 
20 111 
20 119 
20 124 
20 136 
20 137 
20 150 
20 151 
20 163 
20 166 
21 22 
21 23 
21 24 
21 25 
21 26 
21 33 
21 34 
21 47 
21 50 
21 54 
21 60 
21 66 
21 73 
21 83 
21 86 
21 99 
21 101 
21 112 
21 113 
21 120 
21 125 
21 138 
21 142 
21 147 
21 151 
21 164 
21 169 
22 23 
22 24 
22 25 
22 26 
22 34 
22 35 
22 46 
22 48 
22 58 
22 61 
22 70 
22 74 
22 82 
22 87 
22 100 
22 102 
22 106 
22 113 
22 118 
22 126 
22 139 
22 143 
22 152 
22 155 
22 159 
22 165 
23 24 
23 25 
23 26 
23 32 
23 36 
23 40 
23 49 
23 59 
23 62 
23 75 
23 77 
23 80 
23 88 
23 100 
23 101 
23 114 
23 117 
23 125 
23 127 
23 140 
23 141 
23 146 
23 153 
23 161 
23 166 
24 25 
24 26 
24 37 
24 39 
24 42 
24 50 
24 60 
24 63 
24 72 
24 76 
24 87 
24 89 
24 96 
24 102 
24 108 
24 115 
24 127 
24 128 
24 131 
24 141 
24 145 
24 154 
24 162 
24 167 
25 26 
25 27 
25 38 
25 47 
25 51 
25 61 
25 64 
25 75 
25 77 
25 89 
25 90 
25 97 
25 103 
25 111 
25 116 
25 121 
25 129 
25 133 
25 142 
25 148 
25 155 
25 158 
25 168 
26 35 
26 39 
26 44 
26 52 
26 56 
26 65 
26 73 
26 78 
26 79 
26 91 
26 93 
26 104 
26 107 
26 117 
26 124 
26 130 
26 140 
26 143 
26 149 
26 156 
26 168 
26 169 
27 28 
27 29 
27 30 
27 31 
27 32 
27 33 
27 34 
27 35 
27 36 
27 37 
27 38 
27 39 
27 40 
27 47 
27 53 
27 61 
27 66 
27 75 
27 79 
27 89 
27 92 
27 97 
27 105 
27 111 
27 118 
27 121 
27 131 
27 133 
27 144 
27 148 
27 157 
27 158 
28 29 
28 30 
28 31 
28 32 
28 33 
28 34 
28 35 
28 36 
28 37 
28 38 
28 39 
28 41 
28 49 
28 54 
28 65 
28 67 
28 69 
28 80 
28 90 
28 93 
28 94 
28 106 
28 109 
28 119 
28 123 
28 132 
28 137 
28 145 
28 154 
28 158 
28 164 
29 30 
29 31 
29 32 
29 33 
29 34 
29 35 
29 36 
29 37 
29 38 
29 39 
29 42 
29 51 
29 53 
29 55 
29 68 
29 78 
29 81 
29 84 
29 94 
29 95 
29 107 
29 114 
29 120 
29 126 
29 132 
29 133 
29 146 
29 150 
29 159 
29 167 
30 31 
30 32 
30 33 
30 34 
30 35 
30 36 
30 37 
30 38 
30 39 
30 43 
30 48 
30 56 
30 63 
30 68 
30 69 
30 82 
30 91 
30 95 
30 103 
30 105 
30 108 
30 119 
30 121 
30 134 
30 136 
30 147 
30 151 
30 160 
30 166 
31 32 
31 33 
31 34 
31 35 
31 36 
31 37 
31 38 
31 39 
31 43 
31 44 
31 55 
31 57 
31 67 
31 70 
31 83 
31 88 
31 96 
31 104 
31 109 
31 116 
31 122 
31 128 
31 135 
31 138 
31 148 
31 152 
31 157 
31 161 
32 33 
32 34 
32 35 
32 36 
32 37 
32 38 
32 39 
32 40 
32 45 
32 58 
32 59 
32 71 
32 77 
32 80 
32 84 
32 97 
32 100 
32 110 
32 117 
32 123 
32 125 
32 136 
32 141 
32 146 
32 149 
32 161 
32 162 
33 34 
33 35 
33 36 
33 37 
33 38 
33 39 
33 46 
33 50 
33 54 
33 59 
33 66 
33 72 
33 83 
33 85 
33 98 
33 101 
33 111 
33 113 
33 120 
33 124 
33 137 
33 142 
33 147 
33 150 
33 163 
33 169 
34 35 
34 36 
34 37 
34 38 
34 39 
34 46 
34 47 
34 58 
34 60 
34 70 
34 73 
34 82 
34 86 
34 99 
34 102 
34 106 
34 112 
34 118 
34 125 
34 138 
34 143 
34 151 
34 155 
34 159 
34 164 
35 36 
35 37 
35 38 
35 39 
35 44 
35 48 
35 56 
35 61 
35 73 
35 74 
35 79 
35 87 
35 93 
35 100 
35 107 
35 113 
35 124 
35 126 
35 139 
35 140 
35 149 
35 152 
35 165 
35 168 
36 37 
36 38 
36 39 
36 41 
36 49 
36 57 
36 62 
36 75 
36 76 
36 86 
36 88 
36 98 
36 101 
36 110 
36 114 
36 127 
36 129 
36 134 
36 140 
36 153 
36 156 
36 165 
36 166 
37 38 
37 39 
37 50 
37 52 
37 63 
37 64 
37 71 
37 76 
37 85 
37 89 
37 92 
37 102 
37 112 
37 115 
37 122 
37 128 
37 139 
37 141 
37 153 
37 154 
37 160 
37 167 
38 39 
38 45 
38 51 
38 62 
38 64 
38 74 
38 77 
38 81 
38 90 
38 99 
38 103 
38 115 
38 116 
38 129 
38 130 
38 135 
38 142 
38 144 
38 155 
38 163 
38 168 
39 42 
39 52 
39 60 
39 65 
39 72 
39 78 
39 87 
39 91 
39 96 
39 104 
39 108 
39 117 
39 127 
39 130 
39 131 
39 143 
39 145 
39 156 
39 162 
39 169 
40 41 
40 42 
40 43 
40 44 
40 45 
40 46 
40 47 
40 48 
40 49 
40 50 
40 51 
40 52 
40 53 
40 59 
40 66 
40 77 
40 79 
40 80 
40 92 
40 100 
40 105 
40 117 
40 118 
40 125 
40 131 
40 141 
40 144 
40 146 
40 157 
40 161 
41 42 
41 43 
41 44 
41 45 
41 46 
41 47 
41 48 
41 49 
41 50 
41 51 
41 52 
41 54 
41 57 
41 67 
41 76 
41 80 
41 86 
41 93 
41 98 
41 106 
41 110 
41 119 
41 129 
41 132 
41 134 
41 145 
41 156 
41 158 
41 165 
42 43 
42 44 
42 45 
42 46 
42 47 
42 48 
42 49 
42 50 
42 51 
42 52 
42 55 
42 60 
42 68 
42 72 
42 81 
42 87 
42 94 
42 96 
42 107 
42 108 
42 120 
42 127 
42 131 
42 133 
42 145 
42 146 
42 159 
42 162 
43 44 
43 45 
43 46 
43 47 
43 48 
43 49 
43 50 
43 51 
43 52 
43 55 
43 56 
43 67 
43 69 
43 82 
43 88 
43 95 
43 104 
43 108 
43 116 
43 121 
43 128 
43 134 
43 138 
43 147 
43 152 
43 157 
43 160 
44 45 
44 46 
44 47 
44 48 
44 49 
44 50 
44 51 
44 52 
44 56 
44 57 
44 70 
44 73 
44 79 
44 83 
44 93 
44 96 
44 107 
44 109 
44 122 
44 124 
44 135 
44 140 
44 148 
44 149 
44 161 
44 168 
45 46 
45 47 
45 48 
45 49 
45 50 
45 51 
45 52 
45 58 
45 62 
45 71 
45 74 
45 81 
45 84 
45 97 
45 99 
45 110 
45 115 
45 123 
45 130 
45 135 
45 136 
45 144 
45 149 
45 162 
45 163 
46 47 
46 48 
46 49 
46 50 
46 51 
46 52 
46 58 
46 59 
46 70 
46 72 
46 82 
46 85 
46 98 
46 102 
46 106 
46 111 
46 118 
46 124 
46 137 
46 143 
46 150 
46 155 
46 159 
46 163 
47 48 
47 49 
47 50 
47 51 
47 52 
47 60 
47 61 
47 73 
47 75 
47 86 
47 89 
47 97 
47 99 
47 111 
47 112 
47 121 
47 125 
47 133 
47 138 
47 148 
47 151 
47 158 
47 164 
48 49 
48 50 
48 51 
48 52 
48 61 
48 63 
48 68 
48 74 
48 87 
48 91 
48 100 
48 103 
48 105 
48 113 
48 119 
48 126 
48 136 
48 139 
48 151 
48 152 
48 165 
48 166 
49 50 
49 51 
49 52 
49 62 
49 65 
49 69 
49 75 
49 88 
49 90 
49 94 
49 101 
49 109 
49 114 
49 123 
49 127 
49 137 
49 140 
49 153 
49 154 
49 164 
49 166 
50 51 
50 52 
50 54 
50 63 
50 66 
50 76 
50 83 
50 89 
50 101 
50 102 
50 113 
50 115 
50 120 
50 128 
50 141 
50 142 
50 147 
50 154 
50 167 
50 169 
51 52 
51 53 
51 64 
51 77 
51 78 
51 84 
51 90 
51 95 
51 103 
51 114 
51 116 
51 126 
51 129 
51 132 
51 142 
51 150 
51 155 
51 167 
51 168 
52 64 
52 65 
52 71 
52 78 
52 85 
52 91 
52 92 
52 104 
52 112 
52 117 
52 122 
52 130 
52 139 
52 143 
52 153 
52 156 
52 160 
52 169 
53 54 
53 55 
53 56 
53 57 
53 58 
53 59 
53 60 
53 61 
53 62 
53 63 
53 64 
53 65 
53 66 
53 78 
53 79 
53 84 
53 92 
53 95 
53 105 
53 114 
53 118 
53 126 
53 131 
53 132 
53 144 
53 150 
53 157 
53 167 
54 55 
54 56 
54 57 
54 58 
54 59 
54 60 
54 61 
54 62 
54 63 
54 64 
54 65 
54 66 
54 67 
54 80 
54 83 
54 93 
54 101 
54 106 
54 113 
54 119 
54 120 
54 132 
54 142 
54 145 
54 147 
54 158 
54 169 
55 56 
55 57 
55 58 
55 59 
55 60 
55 61 
55 62 
55 63 
55 64 
55 65 
55 67 
55 68 
55 81 
55 88 
55 94 
55 104 
55 107 
55 116 
55 120 
55 128 
55 133 
55 138 
55 146 
55 152 
55 157 
55 159 
56 57 
56 58 
56 59 
56 60 
56 61 
56 62 
56 63 
56 64 
56 65 
56 69 
56 73 
56 79 
56 82 
56 93 
56 95 
56 107 
56 108 
56 121 
56 124 
56 134 
56 140 
56 147 
56 149 
56 160 
56 168 
57 58 
57 59 
57 60 
57 61 
57 62 
57 63 
57 64 
57 65 
57 70 
57 76 
57 83 
57 86 
57 96 
57 98 
57 109 
57 110 
57 122 
57 129 
57 134 
57 135 
57 148 
57 156 
57 161 
57 165 
58 59 
58 60 
58 61 
58 62 
58 63 
58 64 
58 65 
58 70 
58 71 
58 82 
58 84 
58 97 
58 102 
58 106 
58 110 
58 118 
58 123 
58 136 
58 143 
58 149 
58 155 
58 159 
58 162 
59 60 
59 61 
59 62 
59 63 
59 64 
59 65 
59 72 
59 77 
59 80 
59 85 
59 98 
59 100 
59 111 
59 117 
59 124 
59 125 
59 137 
59 141 
59 146 
59 150 
59 161 
59 163 
60 61 
60 62 
60 63 
60 64 
60 65 
60 72 
60 73 
60 86 
60 87 
60 96 
60 99 
60 108 
60 112 
60 125 
60 127 
60 131 
60 138 
60 145 
60 151 
60 162 
60 164 
61 62 
61 63 
61 64 
61 65 
61 74 
61 75 
61 87 
61 89 
61 97 
61 100 
61 111 
61 113 
61 121 
61 126 
61 133 
61 139 
61 148 
61 152 
61 158 
61 165 
62 63 
62 64 
62 65 
62 74 
62 75 
62 81 
62 88 
62 99 
62 101 
62 114 
62 115 
62 127 
62 130 
62 135 
62 140 
62 144 
62 153 
62 163 
62 166 
63 64 
63 65 
63 68 
63 76 
63 89 
63 91 
63 102 
63 103 
63 105 
63 115 
63 119 
63 128 
63 136 
63 141 
63 151 
63 154 
63 166 
63 167 
64 65 
64 71 
64 77 
64 85 
64 90 
64 92 
64 103 
64 112 
64 116 
64 122 
64 129 
64 139 
64 142 
64 153 
64 155 
64 160 
64 168 
65 69 
65 78 
65 90 
65 91 
65 94 
65 104 
65 109 
65 117 
65 123 
65 130 
65 137 
65 143 
65 154 
65 156 
65 164 
65 169 
66 67 
66 68 
66 69 
66 70 
66 71 
66 72 
66 73 
66 74 
66 75 
66 76 
66 77 
66 78 
66 79 
66 83 
66 92 
66 101 
66 105 
66 113 
66 118 
66 120 
66 131 
66 142 
66 144 
66 147 
66 157 
66 169 
67 68 
67 69 
67 70 
67 71 
67 72 
67 73 
67 74 
67 75 
67 76 
67 77 
67 78 
67 80 
67 88 
67 93 
67 104 
67 106 
67 116 
67 119 
67 128 
67 132 
67 138 
67 145 
67 152 
67 157 
67 158 
68 69 
68 70 
68 71 
68 72 
68 73 
68 74 
68 75 
68 76 
68 77 
68 78 
68 81 
68 91 
68 94 
68 103 
68 105 
68 107 
68 119 
68 120 
68 133 
68 136 
68 146 
68 151 
68 159 
68 166 
69 70 
69 71 
69 72 
69 73 
69 74 
69 75 
69 76 
69 77 
69 78 
69 82 
69 90 
69 94 
69 95 
69 108 
69 109 
69 121 
69 123 
69 134 
69 137 
69 147 
69 154 
69 160 
69 164 
70 71 
70 72 
70 73 
70 74 
70 75 
70 76 
70 77 
70 78 
70 82 
70 83 
70 96 
70 102 
70 106 
70 109 
70 118 
70 122 
70 135 
70 143 
70 148 
70 155 
70 159 
70 161 
71 72 
71 73 
71 74 
71 75 
71 76 
71 77 
71 78 
71 84 
71 85 
71 92 
71 97 
71 110 
71 112 
71 122 
71 123 
71 136 
71 139 
71 149 
71 153 
71 160 
71 162 
72 73 
72 74 
72 75 
72 76 
72 77 
72 78 
72 85 
72 87 
72 96 
72 98 
72 108 
72 111 
72 124 
72 127 
72 131 
72 137 
72 145 
72 150 
72 162 
72 163 
73 74 
73 75 
73 76 
73 77 
73 78 
73 79 
73 86 
73 93 
73 99 
73 107 
73 112 
73 124 
73 125 
73 138 
73 140 
73 149 
73 151 
73 164 
73 168 
74 75 
74 76 
74 77 
74 78 
74 81 
74 87 
74 99 
74 100 
74 113 
74 115 
74 126 
74 130 
74 135 
74 139 
74 144 
74 152 
74 163 
74 165 
75 76 
75 77 
75 78 
75 88 
75 89 
75 97 
75 101 
75 111 
75 114 
75 121 
75 127 
75 133 
75 140 
75 148 
75 153 
75 158 
75 166 
76 77 
76 78 
76 86 
76 89 
76 98 
76 102 
76 110 
76 115 
76 128 
76 129 
76 134 
76 141 
76 154 
76 156 
76 165 
76 167 
77 78 
77 80 
77 90 
77 100 
77 103 
77 116 
77 117 
77 125 
77 129 
77 141 
77 142 
77 146 
77 155 
77 161 
77 168 
78 84 
78 91 
78 95 
78 104 
78 114 
78 117 
78 126 
78 130 
78 132 
78 143 
78 150 
78 156 
78 167 
78 169 
79 80 
79 81 
79 82 
79 83 
79 84 
79 85 
79 86 
79 87 
79 88 
79 89 
79 90 
79 91 
79 92 
79 93 
79 105 
79 107 
79 118 
79 124 
79 131 
79 140 
79 144 
79 149 
79 157 
79 168 
80 81 
80 82 
80 83 
80 84 
80 85 
80 86 
80 87 
80 88 
80 89 
80 90 
80 91 
80 93 
80 100 
80 106 
80 117 
80 119 
80 125 
80 132 
80 141 
80 145 
80 146 
80 158 
80 161 
81 82 
81 83 
81 84 
81 85 
81 86 
81 87 
81 88 
81 89 
81 90 
81 91 
81 94 
81 99 
81 107 
81 115 
81 120 
81 130 
81 133 
81 135 
81 144 
81 146 
81 159 
81 163 
82 83 
82 84 
82 85 
82 86 
82 87 
82 88 
82 89 
82 90 
82 91 
82 95 
82 102 
82 106 
82 108 
82 118 
82 121 
82 134 
82 143 
82 147 
82 155 
82 159 
82 160 
83 84 
83 85 
83 86 
83 87 
83 88 
83 89 
83 90 
83 91 
83 96 
83 101 
83 109 
83 113 
83 120 
83 122 
83 135 
83 142 
83 147 
83 148 
83 161 
83 169 
84 85 
84 86 
84 87 
84 88 
84 89 
84 90 
84 91 
84 95 
84 97 
84 110 
84 114 
84 123 
84 126 
84 132 
84 136 
84 149 
84 150 
84 162 
84 167 
85 86 
85 87 
85 88 
85 89 
85 90 
85 91 
85 92 
85 98 
85 111 
85 112 
85 122 
85 124 
85 137 
85 139 
85 150 
85 153 
85 160 
85 163 
86 87 
86 88 
86 89 
86 90 
86 91 
86 98 
86 99 
86 110 
86 112 
86 125 
86 129 
86 134 
86 138 
86 151 
86 156 
86 164 
86 165 
87 88 
87 89 
87 90 
87 91 
87 96 
87 100 
87 108 
87 113 
87 126 
87 127 
87 131 
87 139 
87 145 
87 152 
87 162 
87 165 
88 89 
88 90 
88 91 
88 101 
88 104 
88 114 
88 116 
88 127 
88 128 
88 138 
88 140 
88 152 
88 153 
88 157 
88 166 
89 90 
89 91 
89 97 
89 102 
89 111 
89 115 
89 121 
89 128 
89 133 
89 141 
89 148 
89 154 
89 158 
89 167 
90 91 
90 94 
90 103 
90 109 
90 116 
90 123 
90 129 
90 137 
90 142 
90 154 
90 155 
90 164 
90 168 
91 103 
91 104 
91 105 
91 117 
91 119 
91 130 
91 136 
91 143 
91 151 
91 156 
91 166 
91 169 
92 93 
92 94 
92 95 
92 96 
92 97 
92 98 
92 99 
92 100 
92 101 
92 102 
92 103 
92 104 
92 105 
92 112 
92 118 
92 122 
92 131 
92 139 
92 144 
92 153 
92 157 
92 160 
93 94 
93 95 
93 96 
93 97 
93 98 
93 99 
93 100 
93 101 
93 102 
93 103 
93 104 
93 106 
93 107 
93 119 
93 124 
93 132 
93 140 
93 145 
93 149 
93 158 
93 168 
94 95 
94 96 
94 97 
94 98 
94 99 
94 100 
94 101 
94 102 
94 103 
94 104 
94 107 
94 109 
94 120 
94 123 
94 133 
94 137 
94 146 
94 154 
94 159 
94 164 
95 96 
95 97 
95 98 
95 99 
95 100 
95 101 
95 102 
95 103 
95 104 
95 108 
95 114 
95 121 
95 126 
95 132 
95 134 
95 147 
95 150 
95 160 
95 167 
96 97 
96 98 
96 99 
96 100 
96 101 
96 102 
96 103 
96 104 
96 108 
96 109 
96 122 
96 127 
96 131 
96 135 
96 145 
96 148 
96 161 
96 162 
97 98 
97 99 
97 100 
97 101 
97 102 
97 103 
97 104 
97 110 
97 111 
97 121 
97 123 
97 133 
97 136 
97 148 
97 149 
97 158 
97 162 
98 99 
98 100 
98 101 
98 102 
98 103 
98 104 
98 110 
98 111 
98 124 
98 129 
98 134 
98 137 
98 150 
98 156 
98 163 
98 165 
99 100 
99 101 
99 102 
99 103 
99 104 
99 112 
99 115 
99 125 
99 130 
99 135 
99 138 
99 144 
99 151 
99 163 
99 164 
100 101 
100 102 
100 103 
100 104 
100 113 
100 117 
100 125 
100 126 
100 139 
100 141 
100 146 
100 152 
100 161 
100 165 
101 102 
101 103 
101 104 
101 113 
101 114 
101 120 
101 127 
101 140 
101 142 
101 147 
101 153 
101 166 
101 169 
102 103 
102 104 
102 106 
102 115 
102 118 
102 128 
102 141 
102 143 
102 154 
102 155 
102 159 
102 167 
103 104 
103 105 
103 116 
103 119 
103 129 
103 136 
103 142 
103 151 
103 155 
103 166 
103 168 
104 116 
104 117 
104 128 
104 130 
104 138 
104 143 
104 152 
104 156 
104 157 
104 169 
105 106 
105 107 
105 108 
105 109 
105 110 
105 111 
105 112 
105 113 
105 114 
105 115 
105 116 
105 117 
105 118 
105 119 
105 131 
105 136 
105 144 
105 151 
105 157 
105 166 
106 107 
106 108 
106 109 
106 110 
106 111 
106 112 
106 113 
106 114 
106 115 
106 116 
106 117 
106 118 
106 119 
106 132 
106 143 
106 145 
106 155 
106 158 
106 159 
107 108 
107 109 
107 110 
107 111 
107 112 
107 113 
107 114 
107 115 
107 116 
107 117 
107 120 
107 124 
107 133 
107 140 
107 146 
107 149 
107 159 
107 168 
108 109 
108 110 
108 111 
108 112 
108 113 
108 114 
108 115 
108 116 
108 117 
108 121 
108 127 
108 131 
108 134 
108 145 
108 147 
108 160 
108 162 
109 110 
109 111 
109 112 
109 113 
109 114 
109 115 
109 116 
109 117 
109 122 
109 123 
109 135 
109 137 
109 148 
109 154 
109 161 
109 164 
110 111 
110 112 
110 113 
110 114 
110 115 
110 116 
110 117 
110 123 
110 129 
110 134 
110 136 
110 149 
110 156 
110 162 
110 165 
111 112 
111 113 
111 114 
111 115 
111 116 
111 117 
111 121 
111 124 
111 133 
111 137 
111 148 
111 150 
111 158 
111 163 
112 113 
112 114 
112 115 
112 116 
112 117 
112 122 
112 125 
112 138 
112 139 
112 151 
112 153 
112 160 
112 164 
113 114 
113 115 
113 116 
113 117 
113 120 
113 126 
113 139 
113 142 
113 147 
113 152 
113 165 
113 169 
114 115 
114 116 
114 117 
114 126 
114 127 
114 132 
114 140 
114 150 
114 153 
114 166 
114 167 
115 116 
115 117 
115 128 
115 130 
115 135 
115 141 
115 144 
115 154 
115 163 
115 167 
116 117 
116 128 
116 129 
116 138 
116 142 
116 152 
116 155 
116 157 
116 168 
117 125 
117 130 
117 141 
117 143 
117 146 
117 156 
117 161 
117 169 
118 119 
118 120 
118 121 
118 122 
118 123 
118 124 
118 125 
118 126 
118 127 
118 128 
118 129 
118 130 
118 131 
118 143 
118 144 
118 155 
118 157 
118 159 
119 120 
119 121 
119 122 
119 123 
119 124 
119 125 
119 126 
119 127 
119 128 
119 129 
119 130 
119 132 
119 136 
119 145 
119 151 
119 158 
119 166 
120 121 
120 122 
120 123 
120 124 
120 125 
120 126 
120 127 
120 128 
120 129 
120 130 
120 133 
120 142 
120 146 
120 147 
120 159 
120 169 
121 122 
121 123 
121 124 
121 125 
121 126 
121 127 
121 128 
121 129 
121 130 
121 133 
121 134 
121 147 
121 148 
121 158 
121 160 
122 123 
122 124 
122 125 
122 126 
122 127 
122 128 
122 129 
122 130 
122 135 
122 139 
122 148 
122 153 
122 160 
122 161 
123 124 
123 125 
123 126 
123 127 
123 128 
123 129 
123 130 
123 136 
123 137 
123 149 
123 154 
123 162 
123 164 
124 125 
124 126 
124 127 
124 128 
124 129 
124 130 
124 137 
124 140 
124 149 
124 150 
124 163 
124 168 
125 126 
125 127 
125 128 
125 129 
125 130 
125 138 
125 141 
125 146 
125 151 
125 161 
125 164 
126 127 
126 128 
126 129 
126 130 
126 132 
126 139 
126 150 
126 152 
126 165 
126 167 
127 128 
127 129 
127 130 
127 131 
127 140 
127 145 
127 153 
127 162 
127 166 
128 129 
128 130 
128 138 
128 141 
128 152 
128 154 
128 157 
128 167 
129 130 
129 134 
129 142 
129 155 
129 156 
129 165 
129 168 
130 135 
130 143 
130 144 
130 156 
130 163 
130 169 
131 132 
131 133 
131 134 
131 135 
131 136 
131 137 
131 138 
131 139 
131 140 
131 141 
131 142 
131 143 
131 144 
131 145 
131 157 
131 162 
132 133 
132 134 
132 135 
132 136 
132 137 
132 138 
132 139 
132 140 
132 141 
132 142 
132 143 
132 145 
132 150 
132 158 
132 167 
133 134 
133 135 
133 136 
133 137 
133 138 
133 139 
133 140 
133 141 
133 142 
133 143 
133 146 
133 148 
133 158 
133 159 
134 135 
134 136 
134 137 
134 138 
134 139 
134 140 
134 141 
134 142 
134 143 
134 147 
134 156 
134 160 
134 165 
135 136 
135 137 
135 138 
135 139 
135 140 
135 141 
135 142 
135 143 
135 144 
135 148 
135 161 
135 163 
136 137 
136 138 
136 139 
136 140 
136 141 
136 142 
136 143 
136 149 
136 151 
136 162 
136 166 
137 138 
137 139 
137 140 
137 141 
137 142 
137 143 
137 150 
137 154 
137 163 
137 164 
138 139 
138 140 
138 141 
138 142 
138 143 
138 151 
138 152 
138 157 
138 164 
139 140 
139 141 
139 142 
139 143 
139 152 
139 153 
139 160 
139 165 
140 141 
140 142 
140 143 
140 149 
140 153 
140 166 
140 168 
141 142 
141 143 
141 146 
141 154 
141 161 
141 167 
142 143 
142 147 
142 155 
142 168 
142 169 
143 155 
143 156 
143 159 
143 169 
144 145 
144 146 
144 147 
144 148 
144 149 
144 150 
144 151 
144 152 
144 153 
144 154 
144 155 
144 156 
144 157 
144 163 
145 146 
145 147 
145 148 
145 149 
145 150 
145 151 
145 152 
145 153 
145 154 
145 155 
145 156 
145 158 
145 162 
146 147 
146 148 
146 149 
146 150 
146 151 
146 152 
146 153 
146 154 
146 155 
146 156 
146 159 
146 161 
147 148 
147 149 
147 150 
147 151 
147 152 
147 153 
147 154 
147 155 
147 156 
147 160 
147 169 
148 149 
148 150 
148 151 
148 152 
148 153 
148 154 
148 155 
148 156 
148 158 
148 161 
149 150 
149 151 
149 152 
149 153 
149 154 
149 155 
149 156 
149 162 
149 168 
150 151 
150 152 
150 153 
150 154 
150 155 
150 156 
150 163 
150 167 
151 152 
151 153 
151 154 
151 155 
151 156 
151 164 
151 166 
152 153 
152 154 
152 155 
152 156 
152 157 
152 165 
153 154 
153 155 
153 156 
153 160 
153 166 
154 155 
154 156 
154 164 
154 167 
155 156 
155 159 
155 168 
156 165 
156 169 
157 158 
157 159 
157 160 
157 161 
157 162 
157 163 
157 164 
157 165 
157 166 
157 167 
157 168 
157 169 
158 159 
158 160 
158 161 
158 162 
158 163 
158 164 
158 165 
158 166 
158 167 
158 168 
158 169 
159 160 
159 161 
159 162 
159 163 
159 164 
159 165 
159 166 
159 167 
159 168 
159 169 
160 161 
160 162 
160 163 
160 164 
160 165 
160 166 
160 167 
160 168 
160 169 
161 162 
161 163 
161 164 
161 165 
161 166 
161 167 
161 168 
161 169 
162 163 
162 164 
162 165 
162 166 
162 167 
162 168 
162 169 
163 164 
163 165 
163 166 
163 167 
163 168 
163 169 
164 165 
164 166 
164 167 
164 168 
164 169 
165 166 
165 167 
165 168 
165 169 
166 167 
166 168 
166 169 
167 168 
167 169 
168 169 
